(set-info :smt-lib-version 2.6)
(set-logic QF_NRA)
(set-info :source |
Generated by: Michele Chiari, Francesco Pontiggia
Generated on: 2024-02-02
Generator: POMC
Application: Termination analysis of probabilistic Pushdown Automata
Target solver: Z3
Benchmarks generated by the tool POMC to analyze the termination
probability of a probabilistic Pushdown Automaton (pPDA). The benchmark
contains the system of polynomial equations encoding the probability.
The pPDA has been automatically generated from the following
probabilistic program, originally written by Tobias Winkler:
main() {
  f(1);
}

f(s8 n) {
  bool x;
  while (n > 0) {
    x = true {2u3 : 3u3} false;
    if (x) {
      f(n - 1);
    } else {
      f((n + 1) % 5);
    }
    n = n - 1;
  }
}
|)
(set-info :license "https://creativecommons.org/licenses/by/4.0/")
(set-info :category "industrial")
(set-info :status sat)


(declare-fun |(38,19)!131| () Real)
(declare-fun |(72,19)!72| () Real)
(declare-fun |(70,19)!73| () Real)
(declare-fun |(63,19)!117| () Real)
(declare-fun |(78,19)!113| () Real)
(declare-fun |(120,19)!74| () Real)
(declare-fun |(118,19)!75| () Real)
(declare-fun |(108,19)!91| () Real)
(declare-fun |(129,19)!81| () Real)
(declare-fun |(148,19)!76| () Real)
(declare-fun |(146,19)!77| () Real)
(declare-fun |(143,19)!78| () Real)
(declare-fun |(111,19)!88| () Real)
(declare-fun |(125,19)!84| () Real)
(declare-fun |(131,19)!79| () Real)
(declare-fun |(130,19)!80| () Real)
(declare-fun |(90,32)!138| () Real)
(declare-fun |(92,32)!139| () Real)
(declare-fun |(143,32)!140| () Real)
(declare-fun |(146,32)!141| () Real)
(declare-fun |(148,32)!142| () Real)
(declare-fun |(108,32)!143| () Real)
(declare-fun |(129,32)!144| () Real)
(declare-fun |(130,32)!145| () Real)
(declare-fun |(131,32)!146| () Real)
(declare-fun |(111,32)!147| () Real)
(declare-fun |(125,32)!148| () Real)
(declare-fun |(126,32)!150| () Real)
(declare-fun |(48,26)!149| () Real)
(declare-fun |(50,26)!151| () Real)
(declare-fun |(89,26)!152| () Real)
(declare-fun |(118,26)!153| () Real)
(declare-fun |(120,26)!154| () Real)
(declare-fun |(63,26)!155| () Real)
(declare-fun |(78,26)!156| () Real)
(declare-fun |(79,26)!157| () Real)
(declare-fun |(80,26)!158| () Real)
(declare-fun |(73,26)!159| () Real)
(declare-fun |(17,19)!137| () Real)
(declare-fun |(64,26)!161| () Real)
(declare-fun |(20,18)!160| () Real)
(declare-fun |(42,18)!162| () Real)
(declare-fun |(65,26)!163| () Real)
(declare-fun |(59,26)!165| () Real)
(declare-fun |(51,25)!164| () Real)
(declare-fun |(52,25)!166| () Real)
(declare-fun |(85,25)!167| () Real)
(declare-fun |(86,25)!168| () Real)
(declare-fun |(87,25)!169| () Real)
(declare-fun |(81,25)!170| () Real)
(declare-fun |(53,25)!171| () Real)
(declare-fun |(54,25)!172| () Real)
(declare-fun |(61,26)!173| () Real)
(declare-fun |(127,32)!174| () Real)
(declare-fun |(121,32)!175| () Real)
(declare-fun |(112,32)!176| () Real)
(declare-fun |(113,32)!177| () Real)
(declare-fun |(109,32)!178| () Real)
(declare-fun |(110,32)!179| () Real)
(declare-fun |(104,32)!181| () Real)
(declare-fun |(93,31)!180| () Real)
(declare-fun |(94,31)!182| () Real)
(declare-fun |(139,31)!183| () Real)
(declare-fun |(140,31)!184| () Real)
(declare-fun |(141,31)!185| () Real)
(declare-fun |(97,31)!186| () Real)
(declare-fun |(136,31)!187| () Real)
(declare-fun |(137,31)!188| () Real)
(declare-fun |(138,31)!189| () Real)
(declare-fun |(132,31)!190| () Real)
(declare-fun |(98,31)!191| () Real)
(declare-fun |(99,31)!192| () Real)
(declare-fun |(95,31)!193| () Real)
(declare-fun |(96,31)!194| () Real)
(declare-fun |(106,32)!195| () Real)
(declare-fun |(121,19)!85| () Real)
(declare-fun |(127,19)!82| () Real)
(declare-fun |(126,19)!83| () Real)
(declare-fun |(113,19)!86| () Real)
(declare-fun |(112,19)!87| () Real)
(declare-fun |(110,19)!89| () Real)
(declare-fun |(109,19)!90| () Real)
(declare-fun |(106,19)!92| () Real)
(declare-fun |(104,19)!93| () Real)
(declare-fun |(97,19)!103| () Real)
(declare-fun |(136,19)!99| () Real)
(declare-fun |(141,19)!94| () Real)
(declare-fun |(140,19)!95| () Real)
(declare-fun |(139,19)!96| () Real)
(declare-fun |(132,19)!100| () Real)
(declare-fun |(138,19)!97| () Real)
(declare-fun |(137,19)!98| () Real)
(declare-fun |(99,19)!101| () Real)
(declare-fun |(98,19)!102| () Real)
(declare-fun |(96,19)!104| () Real)
(declare-fun |(95,19)!105| () Real)
(declare-fun |(94,19)!106| () Real)
(declare-fun |(93,19)!107| () Real)
(declare-fun |(92,19)!108| () Real)
(declare-fun |(90,19)!109| () Real)
(declare-fun |(89,19)!110| () Real)
(declare-fun |(73,19)!114| () Real)
(declare-fun |(80,19)!111| () Real)
(declare-fun |(79,19)!112| () Real)
(declare-fun |(65,19)!115| () Real)
(declare-fun |(64,19)!116| () Real)
(declare-fun |(61,19)!118| () Real)
(declare-fun |(59,19)!119| () Real)
(declare-fun |(81,19)!123| () Real)
(declare-fun |(87,19)!120| () Real)
(declare-fun |(86,19)!121| () Real)
(declare-fun |(85,19)!122| () Real)
(declare-fun |(54,19)!124| () Real)
(declare-fun |(53,19)!125| () Real)
(declare-fun |(52,19)!126| () Real)
(declare-fun |(51,19)!127| () Real)
(declare-fun |(50,19)!128| () Real)
(declare-fun |(48,19)!129| () Real)
(declare-fun |(47,19)!130| () Real)
(declare-fun |(27,19)!132| () Real)
(declare-fun |(25,19)!133| () Real)
(declare-fun |(42,19)!134| () Real)
(declare-fun |(20,19)!135| () Real)
(declare-fun |(19,19)!136| () Real)
(assert (>= |(72,19)!72| (+ (* (/ 1.0 3.0) 1.0 |(38,19)!131|) (* (/ 2.0 3.0) 1.0 1.0))))
(assert (>= |(72,19)!72| 0.0))
(assert (>= |(70,19)!73| (* 1.0 1.0 |(72,19)!72|)))
(assert (>= |(70,19)!73| 0.0))
(assert (>= |(120,19)!74|
    (+ (* (/ 1.0 3.0) 1.0 |(78,19)!113|) (* (/ 2.0 3.0) 1.0 |(63,19)!117|))))
(assert (>= |(120,19)!74| 0.0))
(assert (>= |(118,19)!75| (* 1.0 1.0 |(120,19)!74|)))
(assert (>= |(118,19)!75| 0.0))
(assert (>= |(148,19)!76|
    (+ (* (/ 1.0 3.0) 1.0 |(129,19)!81|) (* (/ 2.0 3.0) 1.0 |(108,19)!91|))))
(assert (>= |(148,19)!76| 0.0))
(assert (>= |(146,19)!77| (* 1.0 1.0 |(148,19)!76|)))
(assert (>= |(146,19)!77| 0.0))
(assert (>= |(143,19)!78| (* 1.0 1.0 |(146,19)!77|)))
(assert (>= |(143,19)!78| 0.0))
(assert (>= |(131,19)!79|
    (+ (* (/ 1.0 3.0) 1.0 |(125,19)!84|) (* (/ 2.0 3.0) 1.0 |(111,19)!88|))))
(assert (>= |(131,19)!79| 0.0))
(assert (>= |(130,19)!80| (* 1.0 1.0 |(131,19)!79|)))
(assert (>= |(130,19)!80| 0.0))
(assert (>= |(129,19)!81| (* 1.0 |(90,32)!138| |(130,19)!80|)))
(assert (>= |(129,19)!81| 0.0))
(assert (>= |(90,32)!138|
    (+ (* (/ 1.0 3.0) 1.0 |(143,32)!140|) (* (/ 2.0 3.0) 1.0 |(92,32)!139|))))
(assert (>= |(90,32)!138| 0.0))
(assert (>= |(143,32)!140| (* 1.0 1.0 |(146,32)!141|)))
(assert (>= |(143,32)!140| 0.0))
(assert (>= |(146,32)!141| (* 1.0 1.0 |(148,32)!142|)))
(assert (>= |(146,32)!141| 0.0))
(assert (>= |(148,32)!142|
    (+ (* (/ 1.0 3.0) 1.0 |(129,32)!144|) (* (/ 2.0 3.0) 1.0 |(108,32)!143|))))
(assert (>= |(148,32)!142| 0.0))
(assert (>= |(129,32)!144| (* 1.0 |(90,32)!138| |(130,32)!145|)))
(assert (>= |(129,32)!144| 0.0))
(assert (>= |(130,32)!145| (* 1.0 1.0 |(131,32)!146|)))
(assert (>= |(130,32)!145| 0.0))
(assert (>= |(131,32)!146|
    (+ (* (/ 1.0 3.0) 1.0 |(125,32)!148|) (* (/ 2.0 3.0) 1.0 |(111,32)!147|))))
(assert (>= |(131,32)!146| 0.0))
(assert (>= |(125,32)!148| (* 1.0 |(48,26)!149| |(126,32)!150|)))
(assert (>= |(125,32)!148| 0.0))
(assert (>= |(48,26)!149|
    (+ (* (/ 1.0 3.0) 1.0 |(89,26)!152|) (* (/ 2.0 3.0) 1.0 |(50,26)!151|))))
(assert (>= |(48,26)!149| 0.0))
(assert (>= |(89,26)!152| (* 1.0 |(90,32)!138| |(118,26)!153|)))
(assert (>= |(89,26)!152| 0.0))
(assert (>= |(118,26)!153| (* 1.0 1.0 |(120,26)!154|)))
(assert (>= |(118,26)!153| 0.0))
(assert (>= |(120,26)!154|
    (+ (* (/ 1.0 3.0) 1.0 |(78,26)!156|) (* (/ 2.0 3.0) 1.0 |(63,26)!155|))))
(assert (>= |(120,26)!154| 0.0))
(assert (>= |(78,26)!156| (* 1.0 |(48,26)!149| |(79,26)!157|)))
(assert (>= |(78,26)!156| 0.0))
(assert (>= |(79,26)!157| (* 1.0 1.0 |(80,26)!158|)))
(assert (>= |(79,26)!157| 0.0))
(assert (>= |(80,26)!158| (+ (* (/ 1.0 3.0) 1.0 |(73,26)!159|) (* (/ 2.0 3.0) 1.0 1.0))))
(assert (>= |(80,26)!158| 0.0))
(assert (>= |(73,26)!159| (* 1.0 |(17,19)!137| 1.0)))
(assert (>= |(73,26)!159| 0.0))
(assert (>= |(63,26)!155| (* 1.0 |(20,18)!160| |(64,26)!161|)))
(assert (>= |(63,26)!155| 0.0))
(assert (>= |(20,18)!160| (+ (* (/ 1.0 3.0) 1.0 |(42,18)!162|) (* (/ 2.0 3.0) 1.0 1.0))))
(assert (>= |(20,18)!160| 0.0))
(assert (>= |(42,18)!162| (* 1.0 |(17,19)!137| 1.0)))
(assert (>= |(42,18)!162| 0.0))
(assert (>= |(64,26)!161| (* 1.0 1.0 |(65,26)!163|)))
(assert (>= |(64,26)!161| 0.0))
(assert (>= |(65,26)!163| (+ (* (/ 1.0 3.0) 1.0 |(73,26)!159|) (* (/ 2.0 3.0) 1.0 1.0))))
(assert (>= |(65,26)!163| 0.0))
(assert (>= |(50,26)!151| (* 1.0 |(51,25)!164| |(59,26)!165|)))
(assert (>= |(50,26)!151| 0.0))
(assert (>= |(51,25)!164|
    (+ (* (/ 1.0 3.0) 1.0 |(85,25)!167|) (* (/ 2.0 3.0) 1.0 |(52,25)!166|))))
(assert (>= |(51,25)!164| 0.0))
(assert (>= |(85,25)!167| (* 1.0 |(48,26)!149| |(86,25)!168|)))
(assert (>= |(85,25)!167| 0.0))
(assert (>= |(86,25)!168| (* 1.0 1.0 |(87,25)!169|)))
(assert (>= |(86,25)!168| 0.0))
(assert (>= |(87,25)!169| (+ (* (/ 1.0 3.0) 1.0 |(81,25)!170|) (* (/ 2.0 3.0) 1.0 1.0))))
(assert (>= |(87,25)!169| 0.0))
(assert (>= |(81,25)!170| (* 1.0 |(17,19)!137| 1.0)))
(assert (>= |(81,25)!170| 0.0))
(assert (>= |(52,25)!166| (* 1.0 |(20,18)!160| |(53,25)!171|)))
(assert (>= |(52,25)!166| 0.0))
(assert (>= |(53,25)!171| (* 1.0 1.0 |(54,25)!172|)))
(assert (>= |(53,25)!171| 0.0))
(assert (>= |(54,25)!172| (+ (* (/ 1.0 3.0) 1.0 |(81,25)!170|) (* (/ 2.0 3.0) 1.0 1.0))))
(assert (>= |(54,25)!172| 0.0))
(assert (>= |(59,26)!165| (* 1.0 1.0 |(61,26)!173|)))
(assert (>= |(59,26)!165| 0.0))
(assert (>= |(61,26)!173|
    (+ (* (/ 1.0 3.0) 1.0 |(78,26)!156|) (* (/ 2.0 3.0) 1.0 |(63,26)!155|))))
(assert (>= |(61,26)!173| 0.0))
(assert (>= |(126,32)!150| (* 1.0 1.0 |(127,32)!174|)))
(assert (>= |(126,32)!150| 0.0))
(assert (>= |(127,32)!174|
    (+ (* (/ 1.0 3.0) 1.0 |(121,32)!175|) (* (/ 2.0 3.0) 1.0 1.0))))
(assert (>= |(127,32)!174| 0.0))
(assert (>= |(121,32)!175| (* 1.0 |(17,19)!137| 1.0)))
(assert (>= |(121,32)!175| 0.0))
(assert (>= |(111,32)!147| (* 1.0 |(20,18)!160| |(112,32)!176|)))
(assert (>= |(111,32)!147| 0.0))
(assert (>= |(112,32)!176| (* 1.0 1.0 |(113,32)!177|)))
(assert (>= |(112,32)!176| 0.0))
(assert (>= |(113,32)!177|
    (+ (* (/ 1.0 3.0) 1.0 |(121,32)!175|) (* (/ 2.0 3.0) 1.0 1.0))))
(assert (>= |(113,32)!177| 0.0))
(assert (>= |(108,32)!143| (* 1.0 |(51,25)!164| |(109,32)!178|)))
(assert (>= |(108,32)!143| 0.0))
(assert (>= |(109,32)!178| (* 1.0 1.0 |(110,32)!179|)))
(assert (>= |(109,32)!178| 0.0))
(assert (>= |(110,32)!179|
    (+ (* (/ 1.0 3.0) 1.0 |(125,32)!148|) (* (/ 2.0 3.0) 1.0 |(111,32)!147|))))
(assert (>= |(110,32)!179| 0.0))
(assert (>= |(92,32)!139| (* 1.0 |(93,31)!180| |(104,32)!181|)))
(assert (>= |(92,32)!139| 0.0))
(assert (>= |(93,31)!180|
    (+ (* (/ 1.0 3.0) 1.0 |(139,31)!183|) (* (/ 2.0 3.0) 1.0 |(94,31)!182|))))
(assert (>= |(93,31)!180| 0.0))
(assert (>= |(139,31)!183| (* 1.0 |(90,32)!138| |(140,31)!184|)))
(assert (>= |(139,31)!183| 0.0))
(assert (>= |(140,31)!184| (* 1.0 1.0 |(141,31)!185|)))
(assert (>= |(140,31)!184| 0.0))
(assert (>= |(141,31)!185|
    (+ (* (/ 1.0 3.0) 1.0 |(136,31)!187|) (* (/ 2.0 3.0) 1.0 |(97,31)!186|))))
(assert (>= |(141,31)!185| 0.0))
(assert (>= |(136,31)!187| (* 1.0 |(48,26)!149| |(137,31)!188|)))
(assert (>= |(136,31)!187| 0.0))
(assert (>= |(137,31)!188| (* 1.0 1.0 |(138,31)!189|)))
(assert (>= |(137,31)!188| 0.0))
(assert (>= |(138,31)!189|
    (+ (* (/ 1.0 3.0) 1.0 |(132,31)!190|) (* (/ 2.0 3.0) 1.0 1.0))))
(assert (>= |(138,31)!189| 0.0))
(assert (>= |(132,31)!190| (* 1.0 |(17,19)!137| 1.0)))
(assert (>= |(132,31)!190| 0.0))
(assert (>= |(97,31)!186| (* 1.0 |(20,18)!160| |(98,31)!191|)))
(assert (>= |(97,31)!186| 0.0))
(assert (>= |(98,31)!191| (* 1.0 1.0 |(99,31)!192|)))
(assert (>= |(98,31)!191| 0.0))
(assert (>= |(99,31)!192|
    (+ (* (/ 1.0 3.0) 1.0 |(132,31)!190|) (* (/ 2.0 3.0) 1.0 1.0))))
(assert (>= |(99,31)!192| 0.0))
(assert (>= |(94,31)!182| (* 1.0 |(51,25)!164| |(95,31)!193|)))
(assert (>= |(94,31)!182| 0.0))
(assert (>= |(95,31)!193| (* 1.0 1.0 |(96,31)!194|)))
(assert (>= |(95,31)!193| 0.0))
(assert (>= |(96,31)!194|
    (+ (* (/ 1.0 3.0) 1.0 |(136,31)!187|) (* (/ 2.0 3.0) 1.0 |(97,31)!186|))))
(assert (>= |(96,31)!194| 0.0))
(assert (>= |(104,32)!181| (* 1.0 1.0 |(106,32)!195|)))
(assert (>= |(104,32)!181| 0.0))
(assert (>= |(106,32)!195|
    (+ (* (/ 1.0 3.0) 1.0 |(129,32)!144|) (* (/ 2.0 3.0) 1.0 |(108,32)!143|))))
(assert (>= |(106,32)!195| 0.0))
(assert (>= |(127,19)!82| (* (/ 1.0 3.0) 1.0 |(121,19)!85|)))
(assert (>= |(127,19)!82| 0.0))
(assert (>= |(126,19)!83| (* 1.0 1.0 |(127,19)!82|)))
(assert (>= |(126,19)!83| 0.0))
(assert (>= |(125,19)!84| (* 1.0 |(48,26)!149| |(126,19)!83|)))
(assert (>= |(125,19)!84| 0.0))
(assert (= |(121,19)!85| 0.0))
(assert (>= |(113,19)!86| (* (/ 1.0 3.0) 1.0 0.0)))
(assert (>= |(113,19)!86| 0.0))
(assert (>= |(112,19)!87| (* 1.0 1.0 |(113,19)!86|)))
(assert (>= |(112,19)!87| 0.0))
(assert (>= |(111,19)!88| (* 1.0 |(20,18)!160| |(112,19)!87|)))
(assert (>= |(111,19)!88| 0.0))
(assert (>= |(110,19)!89|
    (+ (* (/ 1.0 3.0) 1.0 |(125,19)!84|) (* (/ 2.0 3.0) 1.0 |(111,19)!88|))))
(assert (>= |(110,19)!89| 0.0))
(assert (>= |(109,19)!90| (* 1.0 1.0 |(110,19)!89|)))
(assert (>= |(109,19)!90| 0.0))
(assert (>= |(108,19)!91| (* 1.0 |(51,25)!164| |(109,19)!90|)))
(assert (>= |(108,19)!91| 0.0))
(assert (>= |(106,19)!92|
    (+ (* (/ 1.0 3.0) 1.0 |(129,19)!81|) (* (/ 2.0 3.0) 1.0 |(108,19)!91|))))
(assert (>= |(106,19)!92| 0.0))
(assert (>= |(104,19)!93| (* 1.0 1.0 |(106,19)!92|)))
(assert (>= |(104,19)!93| 0.0))
(assert (>= |(141,19)!94|
    (+ (* (/ 1.0 3.0) 1.0 |(136,19)!99|) (* (/ 2.0 3.0) 1.0 |(97,19)!103|))))
(assert (>= |(141,19)!94| 0.0))
(assert (>= |(140,19)!95| (* 1.0 1.0 |(141,19)!94|)))
(assert (>= |(140,19)!95| 0.0))
(assert (>= |(139,19)!96| (* 1.0 |(90,32)!138| |(140,19)!95|)))
(assert (>= |(139,19)!96| 0.0))
(assert (>= |(138,19)!97| (* (/ 1.0 3.0) 1.0 |(132,19)!100|)))
(assert (>= |(138,19)!97| 0.0))
(assert (>= |(137,19)!98| (* 1.0 1.0 |(138,19)!97|)))
(assert (>= |(137,19)!98| 0.0))
(assert (>= |(136,19)!99| (* 1.0 |(48,26)!149| |(137,19)!98|)))
(assert (>= |(136,19)!99| 0.0))
(assert (= |(132,19)!100| 0.0))
(assert (>= |(99,19)!101| (* (/ 1.0 3.0) 1.0 0.0)))
(assert (>= |(99,19)!101| 0.0))
(assert (>= |(98,19)!102| (* 1.0 1.0 |(99,19)!101|)))
(assert (>= |(98,19)!102| 0.0))
(assert (>= |(97,19)!103| (* 1.0 |(20,18)!160| |(98,19)!102|)))
(assert (>= |(97,19)!103| 0.0))
(assert (>= |(96,19)!104|
    (+ (* (/ 1.0 3.0) 1.0 |(136,19)!99|) (* (/ 2.0 3.0) 1.0 |(97,19)!103|))))
(assert (>= |(96,19)!104| 0.0))
(assert (>= |(95,19)!105| (* 1.0 1.0 |(96,19)!104|)))
(assert (>= |(95,19)!105| 0.0))
(assert (>= |(94,19)!106| (* 1.0 |(51,25)!164| |(95,19)!105|)))
(assert (>= |(94,19)!106| 0.0))
(assert (>= |(93,19)!107|
    (+ (* (/ 1.0 3.0) 1.0 |(139,19)!96|) (* (/ 2.0 3.0) 1.0 |(94,19)!106|))))
(assert (>= |(93,19)!107| 0.0))
(assert (>= |(92,19)!108| (* 1.0 |(93,31)!180| |(104,19)!93|)))
(assert (>= |(92,19)!108| 0.0))
(assert (>= |(90,19)!109|
    (+ (* (/ 1.0 3.0) 1.0 |(143,19)!78|) (* (/ 2.0 3.0) 1.0 |(92,19)!108|))))
(assert (>= |(90,19)!109| 0.0))
(assert (>= |(89,19)!110| (* 1.0 |(90,32)!138| |(118,19)!75|)))
(assert (>= |(89,19)!110| 0.0))
(assert (>= |(80,19)!111| (* (/ 1.0 3.0) 1.0 |(73,19)!114|)))
(assert (>= |(80,19)!111| 0.0))
(assert (>= |(79,19)!112| (* 1.0 1.0 |(80,19)!111|)))
(assert (>= |(79,19)!112| 0.0))
(assert (>= |(78,19)!113| (* 1.0 |(48,26)!149| |(79,19)!112|)))
(assert (>= |(78,19)!113| 0.0))
(assert (= |(73,19)!114| 0.0))
(assert (>= |(65,19)!115| (* (/ 1.0 3.0) 1.0 0.0)))
(assert (>= |(65,19)!115| 0.0))
(assert (>= |(64,19)!116| (* 1.0 1.0 |(65,19)!115|)))
(assert (>= |(64,19)!116| 0.0))
(assert (>= |(63,19)!117| (* 1.0 |(20,18)!160| |(64,19)!116|)))
(assert (>= |(63,19)!117| 0.0))
(assert (>= |(61,19)!118|
    (+ (* (/ 1.0 3.0) 1.0 |(78,19)!113|) (* (/ 2.0 3.0) 1.0 |(63,19)!117|))))
(assert (>= |(61,19)!118| 0.0))
(assert (>= |(59,19)!119| (* 1.0 1.0 |(61,19)!118|)))
(assert (>= |(59,19)!119| 0.0))
(assert (>= |(87,19)!120| (* (/ 1.0 3.0) 1.0 |(81,19)!123|)))
(assert (>= |(87,19)!120| 0.0))
(assert (>= |(86,19)!121| (* 1.0 1.0 |(87,19)!120|)))
(assert (>= |(86,19)!121| 0.0))
(assert (>= |(85,19)!122| (* 1.0 |(48,26)!149| |(86,19)!121|)))
(assert (>= |(85,19)!122| 0.0))
(assert (= |(81,19)!123| 0.0))
(assert (>= |(54,19)!124| (* (/ 1.0 3.0) 1.0 0.0)))
(assert (>= |(54,19)!124| 0.0))
(assert (>= |(53,19)!125| (* 1.0 1.0 |(54,19)!124|)))
(assert (>= |(53,19)!125| 0.0))
(assert (>= |(52,19)!126| (* 1.0 |(20,18)!160| |(53,19)!125|)))
(assert (>= |(52,19)!126| 0.0))
(assert (>= |(51,19)!127|
    (+ (* (/ 1.0 3.0) 1.0 |(85,19)!122|) (* (/ 2.0 3.0) 1.0 |(52,19)!126|))))
(assert (>= |(51,19)!127| 0.0))
(assert (>= |(50,19)!128| (* 1.0 |(51,25)!164| |(59,19)!119|)))
(assert (>= |(50,19)!128| 0.0))
(assert (>= |(48,19)!129|
    (+ (* (/ 1.0 3.0) 1.0 |(89,19)!110|) (* (/ 2.0 3.0) 1.0 |(50,19)!128|))))
(assert (>= |(48,19)!129| 0.0))
(assert (>= |(47,19)!130| (* 1.0 |(48,26)!149| |(70,19)!73|)))
(assert (>= |(47,19)!130| 0.0))
(assert (>= |(38,19)!131| (* 1.0 |(17,19)!137| 1.0)))
(assert (>= |(38,19)!131| 0.0))
(assert (>= |(27,19)!132| (+ (* (/ 1.0 3.0) 1.0 |(38,19)!131|) (* (/ 2.0 3.0) 1.0 1.0))))
(assert (>= |(27,19)!132| 0.0))
(assert (>= |(25,19)!133| (* 1.0 1.0 |(27,19)!132|)))
(assert (>= |(25,19)!133| 0.0))
(assert (= |(42,19)!134| 0.0))
(assert (>= |(20,19)!135| (* (/ 1.0 3.0) 1.0 0.0)))
(assert (>= |(20,19)!135| 0.0))
(assert (>= |(19,19)!136| (* 1.0 |(20,18)!160| |(25,19)!133|)))
(assert (>= |(19,19)!136| 0.0))
(assert (>= |(17,19)!137|
    (+ (* (/ 1.0 3.0) 1.0 |(47,19)!130|) (* (/ 2.0 3.0) 1.0 |(19,19)!136|))))
(assert (>= |(17,19)!137| 0.0))

(check-sat)
(exit)
